17.9
15
12.9
11.6
19.1
16.7
15.7
13.6
20.1
13.1
19.6
18.9
15.6
16.3
15.5
20.6
19
18.7
18.8
15
18.2
18.5
14.9
13.2
15.5
12.8
17.5
24.5
18.5
19.3
17.1
20.1
19.7
19.1
19.8
16.4
21.3
18.6
20
16.9
14.9
16.5
19.8
19.6
10.5
21.1
20.4
16.8
16
17
19.4
16.7
10.8
18.7
15.5
13.7
15.2
13.8
13.8
15.6
13.9
16
17.5
17.8
12.3
14.8
13.7
14.8
19.4
9.12
15.9
17.7
13.5
17.9
16.6
16.8
19.6
12.3
19.9
17.8
15.4
21.9
20.7
17.8
18
15
20.8
15.8
17.1
16.3
17.8
20.3
13.5
17.9
15.1
14
13.6
18.1
15.2
18
